c Reduced graph for GEOM20b generated by Cyril Grelier
p edge 20 32
e 1 3
e 1 4
e 1 8
e 1 10
e 1 11
e 1 12
e 2 4
e 2 7
e 2 11
e 2 12
e 2 14
e 3 4
e 3 6
e 3 8
e 3 9
e 4 6
e 4 7
e 5 8
e 5 15
e 5 16
e 5 20
e 6 7
e 6 9
e 7 14
e 8 10
e 9 18
e 9 19
e 10 13
e 10 17
e 11 12
e 13 17
e 15 16
